n = 14;

R =
[|0,0,0,1,0,0,7,7,7,7,7,7,7,0,
 |0,0,0,0,0,0,0,0,0,0,0,0,0,6,
 |0,6,6,6,6,6,6,0,0,0,2,3,0,6,
 |0,0,1,5,1,0,0,5,0,0,2,3,0,6,
 |0,0,6,5,0,0,0,5,6,0,0,3,0,6,
 |0,0,6,5,0,1,0,5,6,0,1,0,0,6,
 |0,0,6,5,0,0,0,5,6,1,0,0,0,6,
 |0,3,6,5,0,0,0,5,6,0,0,0,0,0,
 |0,3,6,0,0,3,0,0,6,3,3,3,1,0,
 |4,3,6,0,0,3,0,0,6,1,0,0,0,0,
 |4,0,0,1,0,3,7,7,7,7,7,7,7,0,
 |4,0,0,0,0,0,0,2,2,0,0,0,0,0,
 |4,6,6,6,6,6,6,1,1,0,0,0,0,0,
 |0,0,0,7,7,7,7,7,7,7,0,0,0,0,
 |];

